db/data/272933068130027193721301074911580327712.z3.out
-------------------
2500.299615046
